webassembly/ejemplos_dzn/folder15_json_88.dzn
TERM = { '.', 'in_10', 'in_1', 'in_6', 'in_9', 'in_0', 'in_12', 's(4)', 'in_3', 's(1)', 'in_11', 's(2)', 'in_2', 'in_8', 's(3)', 'local_0', 'local_1', 'in_4', 'in_7', 'in_5'};
null = '.';
s = 15;
n = 18;
ndeps = 7;
max_registers_sz = 5;
NR = 2;
registers = [|'local_0', 's(3)', |'local_1', 's(1)'|];
dependencies = [|'i32.load16_u_3', 'i32.store_5', |'i32.store_5', 'i32.store_7', |'i32.store_7', 'i32.store_8', |'i32.store_8', 'i32.load16_u_10', |'call[function_index(0)]_11', 'i32.store8_13', |'i32.store8_13', 'i32.load_14', |'i32.load16_u_10', 'call[function_index(0)]_11'|];
GET_ENUM = { GET1, GET2, GET3, GET4, GET5, GET6, GET7};
SET_ENUM = { SET1, SET2, SET3, SET4, SET5, SET6, SET7};
TEE_ENUM = { TEE1, TEE2, TEE3, TEE4, TEE5, TEE6, TEE7};
N = 8;
OP = { 'call[function_index(0)]_11', 'i32.load16_u_3', 'i32.store_5', 'i32.store_7', 'i32.store_8', 'i32.load16_u_10', 'i32.store8_13', 'i32.load_14' };
in_ops = [2, 1, 2, 2, 2, 1, 2, 1 ];
out_ops = [1, 1, 0, 0, 0, 1, 0, 1 ];
in1 = ['s(2)', 'local_0', 'in_2', 'in_5', 'in_7', 'in_4', 'in_10', 'in_12' ];
in2 = ['in_9', '.', 'in_3', 'in_6', 'in_8', '.', 'in_11', '.' ];
in3 = ['.', '.', '.', '.', '.', '.', '.', '.' ];
out1 = ['s(3)', 's(1)', '.', '.', '.', 's(2)', '.', 's(4)' ];
out2 = ['.', '.', '.', '.', '.', '.', '.', '.' ];
out3 = ['.', '.', '.', '.', '.', '.', '.', '.' ];
comm = [false, false, false, false, false, false, false, false ];
gas = [1, 1, 1, 1, 1, 1, 1, 1 ];
sz = [1, 1, 1, 1, 1, 1, 1, 1 ];
stor = [true, false, true, true, true, false, true, false ];
lb = [ 1, 1, 1, 1, 1, 1, 1, 1 ];
ub = [ 15, 15, 15, 15, 15, 15, 15, 15 ];
startstack = [ 'in_0', 'in_1', 'in_2', 'in_3', 'in_4', 'in_5', 'in_6', 'in_7', 'in_8', 'in_9', 'in_10', 'in_11', 'in_12', null, null, null, null, null ];
endstack = [ 's(4)', null, null, null, null, null, null, null, null, null, null, null, null, null, null, null, null, null ];
