webassembly/ejemplos_results/folder15_json_88.txt
=====UNSATISFIABLE=====
% time elapsed: 0.72 s
